sat_in/bonus/19.wcnf
p wcnf 18 120 7
1 1 4 7 10 13 16 0
2 2 5 8 11 14 17 0
3 3 6 9 12 15 18 0
7 -1 -5 0
7 -1 -6 0
7 -2 -4 0
7 -2 -6 0
7 -3 -4 0
7 -3 -5 0
7 -1 -11 0
7 -1 -12 0
7 -2 -10 0
7 -2 -12 0
7 -3 -10 0
7 -3 -11 0
7 -1 -14 0
7 -1 -15 0
7 -2 -13 0
7 -2 -15 0
7 -3 -13 0
7 -3 -14 0
7 -4 -14 0
7 -4 -15 0
7 -5 -13 0
7 -5 -15 0
7 -6 -13 0
7 -6 -14 0
7 -4 -17 0
7 -4 -18 0
7 -5 -16 0
7 -5 -18 0
7 -6 -16 0
7 -6 -17 0
7 -7 -11 0
7 -7 -12 0
7 -8 -10 0
7 -8 -12 0
7 -9 -10 0
7 -9 -11 0
7 -7 -14 0
7 -7 -15 0
7 -8 -13 0
7 -8 -15 0
7 -9 -13 0
7 -9 -14 0
7 -7 -17 0
7 -7 -18 0
7 -8 -16 0
7 -8 -18 0
7 -9 -16 0
7 -9 -17 0
7 -13 -17 0
7 -13 -18 0
7 -14 -16 0
7 -14 -18 0
7 -15 -16 0
7 -15 -17 0
7 -1 -4 0
7 -1 -7 0
7 -1 -10 0
7 -1 -13 0
7 -1 -16 0
7 -2 -5 0
7 -2 -8 0
7 -2 -11 0
7 -2 -14 0
7 -2 -17 0
7 -3 -6 0
7 -3 -9 0
7 -3 -12 0
7 -3 -15 0
7 -3 -18 0
7 -4 -7 0
7 -4 -10 0
7 -4 -13 0
7 -4 -16 0
7 -5 -8 0
7 -5 -11 0
7 -5 -14 0
7 -5 -17 0
7 -6 -9 0
7 -6 -12 0
7 -6 -15 0
7 -6 -18 0
7 -7 -10 0
7 -7 -13 0
7 -7 -16 0
7 -8 -11 0
7 -8 -14 0
7 -8 -17 0
7 -9 -12 0
7 -9 -15 0
7 -9 -18 0
7 -10 -13 0
7 -10 -16 0
7 -11 -14 0
7 -11 -17 0
7 -12 -15 0
7 -12 -18 0
7 -13 -16 0
7 -14 -17 0
7 -15 -18 0
7 -1 -2 0
7 -1 -3 0
7 -2 -3 0
7 -4 -5 0
7 -4 -6 0
7 -5 -6 0
7 -7 -8 0
7 -7 -9 0
7 -8 -9 0
7 -10 -11 0
7 -10 -12 0
7 -11 -12 0
7 -13 -14 0
7 -13 -15 0
7 -14 -15 0
7 -16 -17 0
7 -16 -18 0
7 -17 -18 0
