sat_in/task3/19.cnf
p cnf 12 56
1 3 5 7 9 11 0
2 4 6 8 10 12 0
-1 -4 0
-2 -3 0
-1 -8 0
-2 -7 0
-1 -10 0
-2 -9 0
-3 -10 0
-4 -9 0
-3 -12 0
-4 -11 0
-5 -8 0
-6 -7 0
-5 -10 0
-6 -9 0
-5 -12 0
-6 -11 0
-9 -12 0
-10 -11 0
-13 -4 0
-14 -3 0
-13 -6 0
-14 -5 0
-13 -8 0
-14 -7 0
-13 -10 0
-14 -9 0
-13 -12 0
-14 -11 0
-15 -6 0
-16 -5 0
-15 -8 0
-16 -7 0
-15 -10 0
-16 -9 0
-15 -12 0
-16 -11 0
-17 -8 0
-18 -7 0
-17 -10 0
-18 -9 0
-17 -12 0
-18 -11 0
-19 -10 0
-20 -9 0
-19 -12 0
-20 -11 0
-21 -12 0
-22 -11 0
-1 -3 0
-1 -5 0
-1 -7 0
-1 -9 0
-1 -11 0
-2 -4 0
-2 -6 0
-2 -8 0
-2 -10 0
-2 -12 0
-3 -5 0
-3 -7 0
-3 -9 0
-3 -11 0
-4 -6 0
-4 -8 0
-4 -10 0
-4 -12 0
-5 -7 0
-5 -9 0
-5 -11 0
-6 -8 0
-6 -10 0
-6 -12 0
-7 -9 0
-7 -11 0
-8 -10 0
-8 -12 0
-9 -11 0
-10 -12 0
-1 -2 0
-3 -4 0
-5 -6 0
-7 -8 0
-9 -10 0
-11 -12 0
